(declare-const y0 Real)
(declare-const y1 Real)
(declare-const y2 Real)
(declare-const y3 Real)
(declare-const y4 Real)
(declare-const y5 Real)
(declare-const y6 Real)
(declare-const y7 Real)
(declare-const y8 Real)
(declare-const y9 Real)
(declare-const y10 Real)
(declare-const y11 Real)
(declare-const y12 Real)
(declare-const y13 Real)
(declare-const y14 Real)
(declare-const y15 Real)
(declare-const y16 Real)
(declare-const y17 Real)
(declare-const y18 Real)
(declare-const y19 Real)
(declare-const y20 Real)
(assert (= false false))
(assert (= 68 y15))
(assert (< 9 y11))
(assert (< y12 56))
(assert (= (< y19 (+ 47 y5)) (< 20 y3)))
(assert (< (+ y7 55) y0))
(assert (< 84 y11))
(assert (< y14 39))
(assert (= y2 y18))
(check-sat)
